from ase import io
from numpy import *
import sys


NUM = int(sys.argv[1])
#i = 15

splitList = [4, 3, 5, 6, 12, 13, 15, 5 , 6, 12, 12, 10,
12, 16, 15, 6, 12, 12, 12, 12, 16, 13]

sep_list = [-0.8, -0.4,-0.3,  -0.2, -0.15, -0.1, -0.05, -0.025, 0.0, 0.025,0.05, 0.075, 0.1, 0.125,  0.15, 0.175,  0.2, 0.225, 0.25,0.275, 0.3, 0.325,0.35,0.375, 0.4,0.45,0.5,0.6,0.65, 0.7, 1.0,  1.5,  2.0,   3.0, 5.0]   # Len 35


def create_in_file(NUM,i):

  in_filename = 'S22_%02d_%02d.in'%(NUM,i)
  split = splitList[NUM-1]
  shift = sep_list[i]
  ref_filename = "/c3se/users/berland/Glenn/BH_test/S22/s22-xyz/s%02d_14.xyz"%NUM

  atoms_ref= io.read(ref_filename)

  positions = atoms_ref.get_positions()
  posX = positions[:,0]
  posY = positions[:,1]
  posZ = positions[:,2]
  DeltaX = max(posX) - min(posX)
  DeltaY = max(posY) - min(posY)
  DeltaZ = max(posZ) - min(posZ)
  cell = (15+DeltaX,15+DeltaY,DeltaZ+15)
  atoms_ref.set_cell(cell)


  atoms_ref.center()

  atoms1 = atoms_ref[0:split]
  atoms2 = atoms_ref[split:]

  print 'atoms1',atoms1
  Delta = atoms2.get_center_of_mass() - atoms1.get_center_of_mass()
  print 'Delta',Delta
  Dist = sqrt(sum(Delta**2))
  unit = Delta/Dist
  #print 'pos2',atoms_core.get_positions()
  atoms2.translate((-5+shift)*unit)

  atoms = atoms1 + atoms2
  atoms.write('atoms.xyz')
  Natoms = atoms.get_number_of_atoms()

  types_atoms = set(atoms.get_chemical_symbols())
  Ntyp = len(types_atoms)


  atoms.set_cell(cell)
  cell33 = atoms.get_cell()
  #atoms.write('atoms.xyz')

  text_control='''&control
    calculation='scf'
    restart_mode='from_scratch',
    pseudo_dir = '/c3se/users/berland/Glenn/SysAdm/pseudo'
    prefix='S22_%02d_%02d'
    disk_io='none'
    max_seconds=82000
   /'''%(NUM,i)

  text_system = '''
    &system
    ibrav=0
    nat = %i
    ntyp= %i
    ecutwfc = 50.0
    ecutrho = 500.0
    input_dft = 'vdW-DF-PC'
  /'''%(Natoms,Ntyp)

  text_misc='''
  &electrons
    conv_thr =  1.0d-6
  /'''

  text_species='''
  ATOMIC_SPECIES
'''
  if 'H' in types_atoms:
    text_species += 'H  1.0    H.pbesol-rrkjus_psl.0.1.UPF\n'
  if 'N' in types_atoms:
    text_species += 'N  1.0    N.pbesol-n-rrkjus_psl.0.1.UPF\n'
  if 'C' in types_atoms:
    text_species += 'C  1.0    C.pbesol-n-rrkjus_psl.0.1.UPF\n'
  if 'O' in types_atoms:
    text_species +=  'O  1.0   O.pbesol-n-rrkjus_psl.0.1.UPF\n'
  text_species += '   K_POINTS gamma'

  input_cell = list(cell33[0])+list(cell33[1])+list(cell33[2])

  text_cell='''
  CELL_PARAMETERS angstrom
  %1.6f\t %1.6f\t %1.6f
  %1.6f\t %1.6f\t %1.6f
  %1.6f\t %1.6f\t %1.6f
  '''%(tuple(input_cell))

  text_atomic_pos="ATOMIC_POSITIONS angstrom\n"
  file = open('atoms.xyz','r')
  content = file.readlines()
  file.close()

  for line in content[2:]:
    text_atomic_pos += line

  full_text = text_control + text_system + text_misc + text_species+ text_cell + text_atomic_pos

  print full_text

  file = open(in_filename,'w')
  file.write(full_text)
  file.close()

for i in range(35):
  create_in_file(NUM,i)
